************************************************************************
file with basedata            : mf1_.bas
initial value random generator: 8722
************************************************************************
projects                      :  1
jobs (incl. supersource/sink ):  32
horizon                       :  228
RESOURCES
  - renewable                 :  2   R
  - nonrenewable              :  2   N
  - doubly constrained        :  0   D
************************************************************************
PROJECT INFORMATION:
pronr.  #jobs rel.date duedate tardcost  MPM-Time
    1     30      0       39       11       39
************************************************************************
PRECEDENCE RELATIONS:
jobnr.    #modes  #successors   successors
   1        1          3           2   3   4
   2        3          3          11  24  25
   3        3          3           7   8   9
   4        3          3           5   6  16
   5        3          1          18
   6        3          1          20
   7        3          2          10  16
   8        3          2          15  22
   9        3          2          12  20
  10        3          3          13  21  29
  11        3          2          14  27
  12        3          3          24  25  30
  13        3          3          14  17  22
  14        3          2          19  26
  15        3          2          17  18
  16        3          1          17
  17        3          1          31
  18        3          3          19  21  27
  19        3          2          23  31
  20        3          2          27  28
  21        3          1          26
  22        3          3          23  24  26
  23        3          1          30
  24        3          1          28
  25        3          1          29
  26        3          2          28  30
  27        3          1          29
  28        3          1          31
  29        3          1          32
  30        3          1          32
  31        3          1          32
  32        1          0        
************************************************************************
REQUESTS/DURATIONS:
jobnr. mode duration  R 1  R 2  N 1  N 2
------------------------------------------------------------------------
  1      1     0       0    0    0    0
  2      1     1       0    5    0    3
         2     4       6    0    0    3
         3     9       3    0    0    3
  3      1     4       7    0    3    0
         2     6       5    0    0    8
         3     7       4    0    1    0
  4      1     1       0    5    0    8
         2     2       0    5    0    5
         3     8       0    4    3    0
  5      1     1       0    4    4    0
         2     4       6    0    4    0
         3    10       4    0    0    5
  6      1     3       0    8    8    0
         2     3       0    8    0    6
         3     9       0    6    6    0
  7      1     4       9    0    4    0
         2     5       0   10    0    7
         3     8       7    0    0    5
  8      1     2       0    9    8    0
         2     9       4    0    8    0
         3    10       0    6    0    3
  9      1     5       0    9    0    6
         2     9       0    8    0    4
         3     9       3    0    7    0
 10      1     5       0    8    6    0
         2     7       4    0    2    0
         3     9       4    0    0    5
 11      1     6       0    4   10    0
         2     8       6    0    8    0
         3    10       0    2    0    4
 12      1     4       1    0    8    0
         2     5       0    3    6    0
         3     6       0    2    3    0
 13      1     8       1    0    2    0
         2     8       1    0    0    4
         3     9       0    5    2    0
 14      1     3       0    7    0    3
         2     4       0    5    0    1
         3     5       0    3    6    0
 15      1     3       5    0   10    0
         2     4       0    3    0    1
         3     5       4    0    9    0
 16      1     5       0    5    0    7
         2     5       2    0    5    0
         3     7       0    4    5    0
 17      1     3       4    0    3    0
         2     4       0    7    3    0
         3     4       0    6    0    3
 18      1     4       4    0    7    0
         2     5       0    9    0    3
         3     8       0    3    5    0
 19      1     3       9    0    0    8
         2     9       4    0    3    0
         3     9       3    0    5    0
 20      1     3       0    8    4    0
         2     5       0    5    0    6
         3     8       0    2    3    0
 21      1     8       0    7    6    0
         2     9       3    0    4    0
         3     9       4    0    2    0
 22      1     1       0    2    0    7
         2     2       9    0    0    5
         3     3       3    0    3    0
 23      1     6       0    4    0    8
         2     8       5    0    0    6
         3     8       4    0    0    7
 24      1     2       3    0    6    0
         2     7       1    0    4    0
         3     7       3    0    3    0
 25      1     1       5    0    6    0
         2     2       0    2    0    5
         3     4       0    1    4    0
 26      1     4       0    8   10    0
         2     8       0    7    0    4
         3    10       0    7    8    0
 27      1     3       6    0    4    0
         2     5       0    6    4    0
         3     8       0    3    3    0
 28      1     1       0    9    8    0
         2     1       4    0    0    8
         3     7       0    7    0    7
 29      1     3       9    0    6    0
         2     5       0    7    0    5
         3     7       0    4    0    5
 30      1     6       0    3    5    0
         2     7       0    1    0    8
         3    10       5    0    5    0
 31      1     1       9    0    7    0
         2     5       2    0    4    0
         3     5       0    3    0    4
 32      1     0       0    0    0    0
************************************************************************
RESOURCEAVAILABILITIES:
  R 1  R 2  N 1  N 2
   10   14   49   42
************************************************************************
